row=8;
column=8;
Board=[|0,0,0,0,0,0,0,2|0,0,0,0,0,0,0,0|0,0,0,0,3,0,0,0|0,0,0,0,0,0,0,0|0,0,0,0,0,0,0,0|0,0,0,0,0,0,0,0|0,0,0,0,0,0,0,0|0,0,0,0,0,0,5,0|];
right = [2,4,3,0,3,2,1,5];
bottom = [6,0,3,0,4,1,1,5];
